Problem:    SOP
Rows:       110
Columns:    66 (66 integer, 57 binary)
Non-zeros:  516
Status:     INTEGER OPTIMAL
Objective:  costs = 2125 (MINimum)

   No.   Row name        Activity     Lower bound   Upper bound
------ ------------    ------------- ------------- -------------
     1 costs                    2125
     2 start                       1             1             =
     3 end                         1             1             =
     4 onevisit[1]                 1             1             =
     5 onevisit[2]                 1             1             =
     6 onevisit[3]                 1             1             =
     7 onevisit[4]                 1             1             =
     8 onevisit[5]                 1             1             =
     9 onevisit[6]                 1             1             =
    10 onevisit[7]                 1             1             =
    11 inLim[1]                    1             1             =
    12 inLim[2]                    1             1             =
    13 inLim[3]                    1             1             =
    14 inLim[4]                    1             1             =
    15 inLim[5]                    1             1             =
    16 inLim[6]                    1             1             =
    17 inLim[7]                    1             1             =
    18 outLim[1]                   1             1             =
    19 outLim[2]                   1             1             =
    20 outLim[3]                   1             1             =
    21 outLim[4]                   1             1             =
    22 outLim[5]                   1             1             =
    23 outLim[6]                   1             1             =
    24 outLim[7]                   1             1             =
    25 paired[1]                   2             2             =
    26 paired[2]                   2             2             =
    27 paired[3]                   2             2             =
    28 paired[4]                   2             2             =
    29 paired[5]                   2             2             =
    30 paired[6]                   2             2             =
    31 paired[7]                   2             2             =
    32 order[0,1]              99999                       99999
    33 order[0,2]                 -4                       99999
    34 order[0,3]            -100000                       99999
    35 order[0,4]                 -2                       99999
    36 order[0,5]             -99999                       99999
    37 order[0,6]                 -5                       99999
    38 order[0,7]                 -3                       99999
    39 order[0,8]            -100001                       99999
    40 order[1,2]                 -3                       99999
    41 order[1,3]             -99999                       99999
    42 order[1,4]              99999                       99999
    43 order[1,5]             -99998                       99999
    44 order[1,6]                 -4                       99999
    45 order[1,7]                 -2                       99999
    46 order[1,8]            -100000                       99999
    47 order[2,1]                  3                       99999
    48 order[2,3]             -99996                       99999
    49 order[2,4]                  2                       99999
    50 order[2,5]             -99995                       99999
    51 order[2,6]              99999                       99999
    52 order[2,7]                  1                       99999
    53 order[2,8]             -99997                       99999
    54 order[3,1]              99999                       99999
    55 order[3,2]              99996                       99999
    56 order[3,4]              99998                       99999
    57 order[3,5]                  1                       99999
    58 order[3,6]              99995                       99999
    59 order[3,7]              99997                       99999
    60 order[3,8]              99999                       99999
    61 order[4,1]                  1                       99999
    62 order[4,2]                 -2                       99999
    63 order[4,3]             -99998                       99999
    64 order[4,5]             -99997                       99999
    65 order[4,6]                 -3                       99999
    66 order[4,7]              99999                       99999
    67 order[4,8]             -99999                       99999
    68 order[5,1]              99998                       99999
    69 order[5,2]              99995                       99999
    70 order[5,3]              99999                       99999
    71 order[5,4]              99997                       99999
    72 order[5,6]              99994                       99999
    73 order[5,7]              99996                       99999
    74 order[5,8]                 -2                       99999
    75 order[6,1]                  4                       99999
    76 order[6,2]                  1                       99999
    77 order[6,3]             -99995                       99999
    78 order[6,4]                  3                       99999
    79 order[6,5]                  6                       99999
    80 order[6,7]                  2                       99999
    81 order[6,8]             -99996                       99999
    82 order[7,1]                  2                       99999
    83 order[7,2]              99999                       99999
    84 order[7,3]             -99997                       99999
    85 order[7,4]                  1                       99999
    86 order[7,5]             -99996                       99999
    87 order[7,6]                 -2                       99999
    88 order[7,8]             -99998                       99999
    89 prec[0,1]                  -1                          -1
    90 prec[0,2]                  -4                          -1
    91 prec[0,3]             -100000                          -1
    92 prec[0,4]                  -2                          -1
    93 prec[0,5]              -99999                          -1
    94 prec[0,6]                  -5                          -1
    95 prec[0,7]                  -3                          -1
    96 prec[0,8]             -100001                          -1
    97 prec[1,4]                  -1                          -1
    98 prec[1,5]              -99998                          -1
    99 prec[1,6]                  -4                          -1
   100 prec[1,7]                  -2                          -1
   101 prec[1,8]             -100000                          -1
   102 prec[2,8]              -99997                          -1
   103 prec[3,8]                  -1                          -1
   104 prec[4,5]              -99997                          -1
   105 prec[4,8]              -99999                          -1
   106 prec[5,8]                  -2                          -1
   107 prec[6,5]              -99994                          -1
   108 prec[6,8]              -99996                          -1
   109 prec[7,5]              -99996                          -1
   110 prec[7,8]              -99998                          -1

   No. Column name       Activity     Lower bound   Upper bound
------ ------------    ------------- ------------- -------------
     1 x[0,1]       *              1             0             1
     2 x[0,2]       *              0             0             1
     3 x[0,3]       *              0             0             1
     4 x[0,4]       *              0             0             1
     5 x[0,5]       *              0             0             1
     6 x[0,6]       *              0             0             1
     7 x[0,7]       *              0             0             1
     8 x[0,8]       *              0             0             1
     9 x[1,2]       *              0             0             1
    10 x[1,3]       *              0             0             1
    11 x[1,4]       *              1             0             1
    12 x[1,5]       *              0             0             1
    13 x[1,6]       *              0             0             1
    14 x[1,7]       *              0             0             1
    15 x[1,8]       *              0             0             1
    16 x[2,1]       *              0             0             1
    17 x[2,3]       *              0             0             1
    18 x[2,4]       *              0             0             1
    19 x[2,5]       *              0             0             1
    20 x[2,6]       *              1             0             1
    21 x[2,7]       *              0             0             1
    22 x[2,8]       *              0             0             1
    23 x[3,1]       *              0             0             1
    24 x[3,2]       *              0             0             1
    25 x[3,4]       *              0             0             1
    26 x[3,5]       *              0             0             1
    27 x[3,6]       *              0             0             1
    28 x[3,7]       *              0             0             1
    29 x[3,8]       *              1             0             1
    30 x[4,1]       *              0             0             1
    31 x[4,2]       *              0             0             1
    32 x[4,3]       *              0             0             1
    33 x[4,5]       *              0             0             1
    34 x[4,6]       *              0             0             1
    35 x[4,7]       *              1             0             1
    36 x[4,8]       *              0             0             1
    37 x[5,1]       *              0             0             1
    38 x[5,2]       *              0             0             1
    39 x[5,3]       *              1             0             1
    40 x[5,4]       *              0             0             1
    41 x[5,6]       *              0             0             1
    42 x[5,7]       *              0             0             1
    43 x[5,8]       *              0             0             1
    44 x[6,1]       *              0             0             1
    45 x[6,2]       *              0             0             1
    46 x[6,3]       *              0             0             1
    47 x[6,4]       *              0             0             1
    48 x[6,5]       *              1             0             1
    49 x[6,7]       *              0             0             1
    50 x[6,8]       *              0             0             1
    51 x[7,1]       *              0             0             1
    52 x[7,2]       *              1             0             1
    53 x[7,3]       *              0             0             1
    54 x[7,4]       *              0             0             1
    55 x[7,5]       *              0             0             1
    56 x[7,6]       *              0             0             1
    57 x[7,8]       *              0             0             1
    58 u[0]         *              0             0
    59 u[1]         *              1             0
    60 u[2]         *              4             0
    61 u[3]         *         100000             0
    62 u[4]         *              2             0
    63 u[5]         *          99999             0
    64 u[6]         *              5             0
    65 u[7]         *              3             0
    66 u[8]         *         100001             0

Integer feasibility conditions:

INT.PE: max.abs.err. = 0.00e+000 on row 0
        max.rel.err. = 0.00e+000 on row 0
        High quality

INT.PB: max.abs.err. = 0.00e+000 on row 0
        max.rel.err. = 0.00e+000 on row 0
        High quality

End of output
